data/CVRPLIB/Vrp-Set-XML100/instances/XML100_2211_10.vrp
NAME : XML100_2211_10
COMMENT : Generated by Queiroga, Sadykov, Uchoa, and Vidal (2021)
TYPE : CVRP
DIMENSION : 101
EDGE_WEIGHT_TYPE : EUC_2D
CAPACITY : 3
NODE_COORD_SECTION
1    500  500 
2    273  775 
3    940  633 
4    799  300 
5    496  312 
6    898  447 
7    353  360 
8    272  629 
9    888  170 
10   228  630 
11   496  207 
12   554  288 
13   557  276 
14   809  193 
15   570  180 
16   973  259 
17   401  908 
18   918  146 
19   854  705 
20   86   670 
21   820  176 
22   134  744 
23   63   873 
24   818  157 
25   874  596 
26   627  308 
27   882  739 
28   880  573 
29   752  476 
30   568  300 
31   896  585 
32   854  579 
33   775  195 
34   507  289 
35   873  673 
36   905  515 
37   880  561 
38   519  318 
39   820  165 
40   273  689 
41   569  746 
42   269  716 
43   568  165 
44   907  854 
45   595  244 
46   598  352 
47   480  986 
48   504  963 
49   863  802 
50   892  231 
51   858  207 
52   387  958 
53   429  860 
54   366  911 
55   617  708 
56   383  796 
57   995  889 
58   420  808 
59   289  645 
60   836  345 
61   332  605 
62   868  170 
63   767  181 
64   857  849 
65   446  142 
66   11   520 
67   231  685 
68   854  691 
69   859  266 
70   509  217 
71   586  252 
72   912  625 
73   536  253 
74   378  925 
75   913  214 
76   579  317 
77   407  908 
78   840  643 
79   95   819 
80   293  492 
81   861  491 
82   731  255 
83   617  231 
84   314  660 
85   248  956 
86   790  783 
87   190  936 
88   988  8   
89   428  939 
90   864  296 
91   928  281 
92   757  161 
93   418  875 
94   850  228 
95   136  543 
96   231  709 
97   669  226 
98   158  581 
99   186  786 
100  814  311 
101  848  172 
DEMAND_SECTION
1    0   
2    1   
3    1   
4    1   
5    1   
6    1   
7    1   
8    1   
9    1   
10   1   
11   1   
12   1   
13   1   
14   1   
15   1   
16   1   
17   1   
18   1   
19   1   
20   1   
21   1   
22   1   
23   1   
24   1   
25   1   
26   1   
27   1   
28   1   
29   1   
30   1   
31   1   
32   1   
33   1   
34   1   
35   1   
36   1   
37   1   
38   1   
39   1   
40   1   
41   1   
42   1   
43   1   
44   1   
45   1   
46   1   
47   1   
48   1   
49   1   
50   1   
51   1   
52   1   
53   1   
54   1   
55   1   
56   1   
57   1   
58   1   
59   1   
60   1   
61   1   
62   1   
63   1   
64   1   
65   1   
66   1   
67   1   
68   1   
69   1   
70   1   
71   1   
72   1   
73   1   
74   1   
75   1   
76   1   
77   1   
78   1   
79   1   
80   1   
81   1   
82   1   
83   1   
84   1   
85   1   
86   1   
87   1   
88   1   
89   1   
90   1   
91   1   
92   1   
93   1   
94   1   
95   1   
96   1   
97   1   
98   1   
99   1   
100  1   
101  1   
DEPOT_SECTION
1
-1
EOF
