data/CVRPLIB/Vrp-Set-XML100/solutions/XML100_2211_10.sol
Route #1: 4 33 37
Route #2: 60 58 7
Route #3: 83 39 41
Route #4: 31 36 35
Route #5: 32 62 91
Route #6: 23 38 20
Route #7: 14 42 69
Route #8: 84 86 1
Route #9: 54 40
Route #10: 85 48 26
Route #11: 71 2 77
Route #12: 70 44 72
Route #13: 25 96 82
Route #14: 13 100 61
Route #15: 10 64 6
Route #16: 78 22 98
Route #17: 53 73 51
Route #18: 47 46 88
Route #19: 55 52 57
Route #20: 63 43 56
Route #21: 92 16 76
Route #22: 87 17 8
Route #23: 29 12 11
Route #24: 34 67 18
Route #25: 99 3 81
Route #26: 75 45
Route #27: 21 19 65
Route #28: 28 5 80
Route #29: 49 50 93
Route #30: 9 66 95
Route #31: 24 30 27
Route #32: 59 89 68
Route #33: 74 15 90
Route #34: 79 94 97
Cost 28880
